experiments/knapsack_bounded/knapsack_bounded_25_7.mps
NAME
ROWS
 N  OBJ
 L  c1
 L  c2
 L  c3
 L  c4
 L  c5
 L  c6
 L  c7
 L  c8
 L  c9
 L  c10
 L  c11
 L  c12
 L  c13
 L  c14
 L  c15
 L  c16
 L  c17
 L  c18
 L  c19
 L  c20
 L  c21
 L  c22
 L  c23
 L  c24
 L  c25
 L  c26
COLUMNS
    MARKER    'MARKER'                 'INTORG'
    x[1]      c1        480
    x[1]      c2        1
    x[1]      OBJ       -764
    x[2]      c1        5
    x[2]      c3        1
    x[2]      OBJ       -345
    x[3]      c1        677
    x[3]      c4        1
    x[3]      OBJ       -140
    x[4]      c1        341
    x[4]      c5        1
    x[4]      OBJ       -760
    x[5]      c1        579
    x[5]      c6        1
    x[5]      OBJ       -281
    x[6]      c1        201
    x[6]      c7        1
    x[6]      OBJ       -408
    x[7]      c1        889
    x[7]      c8        1
    x[7]      OBJ       -810
    x[8]      c1        673
    x[8]      c9        1
    x[8]      OBJ       -909
    x[9]      c1        185
    x[9]      c10       1
    x[9]      OBJ       -174
    x[10]     c1        432
    x[10]     c11       1
    x[10]     OBJ       -948
    x[11]     c1        715
    x[11]     c12       1
    x[11]     OBJ       -863
    x[12]     c1        650
    x[12]     c13       1
    x[12]     OBJ       -570
    x[13]     c1        946
    x[13]     c14       1
    x[13]     OBJ       -357
    x[14]     c1        533
    x[14]     c15       1
    x[14]     OBJ       -600
    x[15]     c1        967
    x[15]     c16       1
    x[15]     OBJ       -241
    x[16]     c1        608
    x[16]     c17       1
    x[16]     OBJ       -426
    x[17]     c1        356
    x[17]     c18       1
    x[17]     OBJ       -774
    x[18]     c1        511
    x[18]     c19       1
    x[18]     OBJ       -348
    x[19]     c1        588
    x[19]     c20       1
    x[19]     OBJ       -4
    x[20]     c1        364
    x[20]     c21       1
    x[20]     OBJ       -38
    x[21]     c1        30
    x[21]     c22       1
    x[21]     OBJ       -801
    x[22]     c1        759
    x[22]     c23       1
    x[22]     OBJ       -942
    x[23]     c1        603
    x[23]     c24       1
    x[23]     OBJ       -501
    x[24]     c1        328
    x[24]     c25       1
    x[24]     OBJ       -359
    x[25]     c1        190
    x[25]     c26       1
    x[25]     OBJ       -919
    MARKER    'MARKER'                 'INTEND'
RHS
    rhs       c1        6305
    rhs       c2        5
    rhs       c3        10
    rhs       c4        4
    rhs       c5        9
    rhs       c6        4
    rhs       c7        8
    rhs       c8        6
    rhs       c9        2
    rhs       c10       7
    rhs       c11       4
    rhs       c12       2
    rhs       c13       1
    rhs       c14       3
    rhs       c15       10
    rhs       c16       8
    rhs       c17       6
    rhs       c18       10
    rhs       c19       9
    rhs       c20       8
    rhs       c21       10
    rhs       c22       1
    rhs       c23       3
    rhs       c24       1
    rhs       c25       8
    rhs       c26       7
RANGES
BOUNDS
 LO bounds    x[1]      0
 PL bounds    x[1]
 LO bounds    x[2]      0
 PL bounds    x[2]
 LO bounds    x[3]      0
 PL bounds    x[3]
 LO bounds    x[4]      0
 PL bounds    x[4]
 LO bounds    x[5]      0
 PL bounds    x[5]
 LO bounds    x[6]      0
 PL bounds    x[6]
 LO bounds    x[7]      0
 PL bounds    x[7]
 LO bounds    x[8]      0
 PL bounds    x[8]
 LO bounds    x[9]      0
 PL bounds    x[9]
 LO bounds    x[10]     0
 PL bounds    x[10]
 LO bounds    x[11]     0
 PL bounds    x[11]
 LO bounds    x[12]     0
 PL bounds    x[12]
 LO bounds    x[13]     0
 PL bounds    x[13]
 LO bounds    x[14]     0
 PL bounds    x[14]
 LO bounds    x[15]     0
 PL bounds    x[15]
 LO bounds    x[16]     0
 PL bounds    x[16]
 LO bounds    x[17]     0
 PL bounds    x[17]
 LO bounds    x[18]     0
 PL bounds    x[18]
 LO bounds    x[19]     0
 PL bounds    x[19]
 LO bounds    x[20]     0
 PL bounds    x[20]
 LO bounds    x[21]     0
 PL bounds    x[21]
 LO bounds    x[22]     0
 PL bounds    x[22]
 LO bounds    x[23]     0
 PL bounds    x[23]
 LO bounds    x[24]     0
 PL bounds    x[24]
 LO bounds    x[25]     0
 PL bounds    x[25]
ENDATA
